(set-logic QF_NRA)
(set-info :source |Benchmarks generated from hycomp (https://es-static.fbk.eu/tools/hycomp/). BMC instances of non-linear hybrid automata taken from: Alessandro Cimatti, Sergio Mover, Stefano Tonetta, A quantifier-free SMT encoding of non-linear hybrid automata, FMCAD 2012 and Alessandro Cimatti, Sergio Mover, Stefano Tonetta, Quantier-free encoding of invariants for Hybrid Systems, Formal Methods in System Design. This instance solves a BMC problem of depth 2 and uses the quantifier free encoding with equivalences and lemmas encoding. Contacts: Sergio Mover (mover@fbk.eu), Stefano Tonetta (tonettas@fbk.eu), Alessandro Cimatti (cimatti@fbk.eu).|)
(set-info :smt-lib-version 2.0)
(set-info :category "industrial")
(set-info :status unsat)
;; MathSAT API call trace
;; generated on Mon Mar 19 10:47:12 2012
(declare-fun b.time__AT1 () Real)
(declare-fun g__AT0 () Real)
(declare-fun b.y__AT0 () Real)
(declare-fun b.EVENT.0__AT1 () Bool)
(declare-fun b.speed_y__AT1 () Real)
(declare-fun b.speed_y__AT2 () Real)
(declare-fun b.delta__AT1 () Real)
(declare-fun b.counter.0__AT0 () Bool)
(declare-fun b.EVENT.1__AT1 () Bool)
(declare-fun b.delta__AT0 () Real)
(declare-fun b.counter.1__AT0 () Bool)
(declare-fun b.EVENT.0__AT0 () Bool)
(declare-fun b.x__AT1 () Real)
(declare-fun b.speed_y__AT0 () Real)
(declare-fun b.counter.3__AT0 () Bool)
(declare-fun b.event_is_timed__AT2 () Bool)
(declare-fun b.event_is_timed__AT0 () Bool)
(declare-fun speed_loss__AT0 () Real)
(declare-fun b.time__AT2 () Real)
(declare-fun b.y__AT1 () Real)
(declare-fun b.y__AT2 () Real)
(declare-fun b.event_is_timed__AT1 () Bool)
(declare-fun b.delta__AT2 () Real)
(declare-fun b.counter.0__AT1 () Bool)
(declare-fun b.counter.0__AT2 () Bool)
(declare-fun b.speed_x__AT0 () Real)
(declare-fun b.x__AT2 () Real)
(declare-fun b.EVENT.0__AT2 () Bool)
(declare-fun b.counter.1__AT1 () Bool)
(declare-fun b.time__AT0 () Real)
(declare-fun b.counter.1__AT2 () Bool)
(declare-fun b.counter.2__AT0 () Bool)
(declare-fun b.EVENT.1__AT2 () Bool)
(declare-fun b.counter.2__AT1 () Bool)
(declare-fun b.counter.2__AT2 () Bool)
(declare-fun b.counter.3__AT1 () Bool)
(declare-fun b.counter.3__AT2 () Bool)
(declare-fun b.EVENT.1__AT0 () Bool)
(declare-fun b.x__AT0 () Real)
(declare-fun b.speed_x__AT1 () Real)
(declare-fun b.speed_x__AT2 () Real)
(assert (let ((.def_78 (* (- 1.0) g__AT0)))
(let ((.def_79 (* (/ 1 2) .def_78)))
(let ((.def_86 (* 2.0 .def_79)))
(let ((.def_518 (* .def_86 b.delta__AT2)))
(let ((.def_519 (+ b.speed_y__AT2 .def_518)))
(let ((.def_536 (<= .def_519 0.0 )))
(let ((.def_537 (not .def_536)))
(let ((.def_534 (<= b.speed_y__AT2 0.0 )))
(let ((.def_557 (or .def_534 .def_537)))
(let ((.def_522 (<= 0.0 b.speed_y__AT2)))
(let ((.def_523 (not .def_522)))
(let ((.def_520 (<= 0.0 .def_519)))
(let ((.def_556 (or .def_520 .def_523)))
(let ((.def_558 (and .def_556 .def_557)))
(let ((.def_126 (<= 0.0 g__AT0)))
(let ((.def_559 (or .def_126 .def_558)))
(let ((.def_521 (not .def_520)))
(let ((.def_553 (or .def_521 .def_522)))
(let ((.def_535 (not .def_534)))
(let ((.def_552 (or .def_535 .def_536)))
(let ((.def_554 (and .def_552 .def_553)))
(let ((.def_121 (<= g__AT0 0.0 )))
(let ((.def_555 (or .def_121 .def_554)))
(let ((.def_560 (and .def_555 .def_559)))
(let ((.def_549 (and .def_534 .def_536)))
(let ((.def_548 (and .def_520 .def_522)))
(let ((.def_550 (or .def_548 .def_549)))
(let ((.def_513 (* b.speed_y__AT2 b.delta__AT2)))
(let ((.def_511 (* b.delta__AT2 b.delta__AT2)))
(let ((.def_512 (* .def_79 .def_511)))
(let ((.def_514 (+ .def_512 .def_513)))
(let ((.def_515 (+ b.y__AT2 .def_514)))
(let ((.def_528 (<= .def_515 0.0 )))
(let ((.def_542 (not .def_528)))
(let ((.def_526 (<= b.y__AT2 0.0 )))
(let ((.def_543 (or .def_526 .def_542)))
(let ((.def_497 (<= 0.0 b.y__AT2)))
(let ((.def_540 (not .def_497)))
(let ((.def_516 (<= 0.0 .def_515)))
(let ((.def_541 (or .def_516 .def_540)))
(let ((.def_544 (and .def_541 .def_543)))
(let ((.def_538 (or .def_535 .def_537)))
(let ((.def_539 (not .def_538)))
(let ((.def_545 (or .def_539 .def_544)))
(let ((.def_530 (not .def_516)))
(let ((.def_531 (or .def_497 .def_530)))
(let ((.def_527 (not .def_526)))
(let ((.def_529 (or .def_527 .def_528)))
(let ((.def_532 (and .def_529 .def_531)))
(let ((.def_524 (or .def_521 .def_523)))
(let ((.def_525 (not .def_524)))
(let ((.def_533 (or .def_525 .def_532)))
(let ((.def_546 (and .def_533 .def_545)))
(let ((.def_517 (and .def_497 .def_516)))
(let ((.def_547 (and .def_517 .def_546)))
(let ((.def_551 (and .def_547 .def_550)))
(let ((.def_561 (and .def_551 .def_560)))
(let ((.def_59 (<= g__AT0 10.0 )))
(let ((.def_58 (<= 8.0 g__AT0)))
(let ((.def_60 (and .def_58 .def_59)))
(let ((.def_562 (and .def_60 .def_561)))
(let ((.def_67 (<= speed_loss__AT0 (/ 1 2))))
(let ((.def_64 (<= (/ 1 10) speed_loss__AT0)))
(let ((.def_68 (and .def_64 .def_67)))
(let ((.def_563 (and .def_68 .def_562)))
(let ((.def_189 (not b.counter.0__AT1)))
(let ((.def_177 (not b.counter.1__AT1)))
(let ((.def_502 (and .def_177 .def_189)))
(let ((.def_506 (or b.counter.3__AT1 .def_502)))
(let ((.def_503 (or b.counter.2__AT1 .def_502)))
(let ((.def_184 (not b.counter.2__AT1)))
(let ((.def_501 (or .def_177 .def_184)))
(let ((.def_504 (and .def_501 .def_503)))
(let ((.def_199 (not b.counter.3__AT1)))
(let ((.def_505 (or .def_199 .def_504)))
(let ((.def_507 (and .def_505 .def_506)))
(let ((.def_69 (and .def_60 .def_68)))
(let ((.def_498 (and .def_69 .def_497)))
(let ((.def_494 (not b.EVENT.0__AT2)))
(let ((.def_492 (not b.EVENT.1__AT2)))
(let ((.def_495 (or .def_492 .def_494)))
(let ((.def_9 (not b.counter.0__AT2)))
(let ((.def_6 (not b.counter.1__AT2)))
(let ((.def_485 (or .def_6 .def_9)))
(let ((.def_489 (or b.counter.3__AT2 .def_485)))
(let ((.def_486 (or b.counter.2__AT2 .def_485)))
(let ((.def_4 (not b.counter.2__AT2)))
(let ((.def_484 (or .def_4 .def_9)))
(let ((.def_487 (and .def_484 .def_486)))
(let ((.def_14 (not b.counter.3__AT2)))
(let ((.def_488 (or .def_14 .def_487)))
(let ((.def_490 (and .def_488 .def_489)))
(let ((.def_496 (and .def_490 .def_495)))
(let ((.def_499 (and .def_496 .def_498)))
(let ((.def_479 (<= 0.0 b.delta__AT1)))
(let ((.def_287 (not b.EVENT.0__AT1)))
(let ((.def_285 (not b.EVENT.1__AT1)))
(let ((.def_383 (and .def_285 .def_287)))
(let ((.def_384 (not .def_383)))
(let ((.def_480 (or .def_384 .def_479)))
(let ((.def_481 (or b.EVENT.1__AT1 .def_480)))
(let ((.def_428 (= b.counter.0__AT2 b.counter.0__AT1)))
(let ((.def_426 (= b.counter.1__AT2 b.counter.1__AT1)))
(let ((.def_424 (= b.counter.2__AT2 b.counter.2__AT1)))
(let ((.def_423 (= b.counter.3__AT2 b.counter.3__AT1)))
(let ((.def_425 (and .def_423 .def_424)))
(let ((.def_427 (and .def_425 .def_426)))
(let ((.def_429 (and .def_427 .def_428)))
(let ((.def_476 (or .def_384 .def_429)))
(let ((.def_477 (or b.EVENT.1__AT1 .def_476)))
(let ((.def_436 (= b.x__AT1 b.x__AT2)))
(let ((.def_433 (= b.y__AT1 b.y__AT2)))
(let ((.def_470 (and .def_433 .def_436)))
(let ((.def_364 (= b.speed_x__AT1 b.speed_x__AT2)))
(let ((.def_471 (and .def_364 .def_470)))
(let ((.def_422 (= b.speed_y__AT1 b.speed_y__AT2)))
(let ((.def_472 (and .def_422 .def_471)))
(let ((.def_467 (= b.delta__AT1 0.0 )))
(let ((.def_468 (and .def_383 .def_467)))
(let ((.def_469 (not .def_468)))
(let ((.def_473 (or .def_469 .def_472)))
(let ((.def_474 (or b.EVENT.1__AT1 .def_473)))
(let ((.def_447 (= b.time__AT1 b.time__AT2)))
(let ((.def_459 (and .def_436 .def_447)))
(let ((.def_460 (and .def_433 .def_459)))
(let ((.def_461 (and .def_364 .def_460)))
(let ((.def_462 (and .def_422 .def_461)))
(let ((.def_463 (and .def_429 .def_462)))
(let ((.def_464 (or .def_285 .def_463)))
(let ((.def_450 (* (- 1.0) b.time__AT2)))
(let ((.def_453 (+ b.delta__AT1 .def_450)))
(let ((.def_454 (+ b.time__AT1 .def_453)))
(let ((.def_455 (= .def_454 0.0 )))
(let ((.def_456 (or .def_384 .def_455)))
(let ((.def_457 (or b.EVENT.1__AT1 .def_456)))
(let ((.def_448 (or .def_383 .def_447)))
(let ((.def_449 (or b.EVENT.1__AT1 .def_448)))
(let ((.def_458 (and .def_449 .def_457)))
(let ((.def_465 (and .def_458 .def_464)))
(let ((.def_443 (= .def_384 b.event_is_timed__AT2)))
(let ((.def_441 (= b.event_is_timed__AT1 .def_383)))
(let ((.def_444 (and .def_441 .def_443)))
(let ((.def_430 (and .def_422 .def_429)))
(let ((.def_386 (= b.y__AT1 0.0 )))
(let ((.def_314 (<= 0.0 b.speed_y__AT1)))
(let ((.def_315 (not .def_314)))
(let ((.def_387 (and .def_315 .def_386)))
(let ((.def_431 (or .def_387 .def_430)))
(let ((.def_399 (or .def_9 b.counter.0__AT1)))
(let ((.def_398 (or b.counter.0__AT2 .def_189)))
(let ((.def_400 (and .def_398 .def_399)))
(let ((.def_401 (and .def_6 .def_400)))
(let ((.def_402 (or b.counter.1__AT1 .def_401)))
(let ((.def_397 (or b.counter.1__AT2 .def_177)))
(let ((.def_403 (and .def_397 .def_402)))
(let ((.def_414 (and .def_4 .def_403)))
(let ((.def_415 (or b.counter.2__AT1 .def_414)))
(let ((.def_409 (and .def_6 .def_189)))
(let ((.def_410 (or b.counter.1__AT1 .def_409)))
(let ((.def_411 (and .def_397 .def_410)))
(let ((.def_412 (and b.counter.2__AT2 .def_411)))
(let ((.def_413 (or .def_184 .def_412)))
(let ((.def_416 (and .def_413 .def_415)))
(let ((.def_417 (and b.counter.3__AT2 .def_416)))
(let ((.def_418 (or b.counter.3__AT1 .def_417)))
(let ((.def_404 (and b.counter.2__AT2 .def_403)))
(let ((.def_405 (or b.counter.2__AT1 .def_404)))
(let ((.def_393 (or b.counter.1__AT2 b.counter.1__AT1)))
(let ((.def_391 (and .def_6 b.counter.0__AT2)))
(let ((.def_392 (or .def_177 .def_391)))
(let ((.def_394 (and .def_392 .def_393)))
(let ((.def_395 (and .def_4 .def_394)))
(let ((.def_396 (or .def_184 .def_395)))
(let ((.def_406 (and .def_396 .def_405)))
(let ((.def_407 (and .def_14 .def_406)))
(let ((.def_408 (or .def_199 .def_407)))
(let ((.def_419 (and .def_408 .def_418)))
(let ((.def_172 (* (- 1.0) speed_loss__AT0)))
(let ((.def_173 (+ 1.0 .def_172)))
(let ((.def_151 (* (- 1.0) b.speed_y__AT1)))
(let ((.def_389 (* .def_151 .def_173)))
(let ((.def_390 (= b.speed_y__AT2 .def_389)))
(let ((.def_420 (and .def_390 .def_419)))
(let ((.def_388 (not .def_387)))
(let ((.def_421 (or .def_388 .def_420)))
(let ((.def_432 (and .def_421 .def_431)))
(let ((.def_434 (and .def_432 .def_433)))
(let ((.def_435 (and .def_364 .def_434)))
(let ((.def_437 (and .def_435 .def_436)))
(let ((.def_438 (or .def_383 .def_437)))
(let ((.def_439 (or b.EVENT.1__AT1 .def_438)))
(let ((.def_374 (* (- 1.0) b.y__AT2)))
(let ((.def_305 (* b.speed_y__AT1 b.delta__AT1)))
(let ((.def_378 (+ .def_305 .def_374)))
(let ((.def_303 (* b.delta__AT1 b.delta__AT1)))
(let ((.def_304 (* .def_79 .def_303)))
(let ((.def_379 (+ .def_304 .def_378)))
(let ((.def_380 (+ b.y__AT1 .def_379)))
(let ((.def_381 (= .def_380 0.0 )))
(let ((.def_368 (* (- 1.0) b.speed_y__AT2)))
(let ((.def_366 (* .def_78 b.delta__AT1)))
(let ((.def_369 (+ .def_366 .def_368)))
(let ((.def_370 (+ b.speed_y__AT1 .def_369)))
(let ((.def_371 (= .def_370 0.0 )))
(let ((.def_359 (* (- 1.0) b.x__AT2)))
(let ((.def_357 (* b.speed_x__AT1 b.delta__AT1)))
(let ((.def_360 (+ .def_357 .def_359)))
(let ((.def_361 (+ b.x__AT1 .def_360)))
(let ((.def_362 (= .def_361 0.0 )))
(let ((.def_365 (and .def_362 .def_364)))
(let ((.def_372 (and .def_365 .def_371)))
(let ((.def_382 (and .def_372 .def_381)))
(let ((.def_385 (or .def_382 .def_384)))
(let ((.def_440 (and .def_385 .def_439)))
(let ((.def_445 (and .def_440 .def_444)))
(let ((.def_466 (and .def_445 .def_465)))
(let ((.def_475 (and .def_466 .def_474)))
(let ((.def_478 (and .def_475 .def_477)))
(let ((.def_482 (and .def_478 .def_481)))
(let ((.def_483 (and .def_285 .def_482)))
(let ((.def_500 (and .def_483 .def_499)))
(let ((.def_508 (and .def_500 .def_507)))
(let ((.def_310 (* .def_86 b.delta__AT1)))
(let ((.def_311 (+ b.speed_y__AT1 .def_310)))
(let ((.def_328 (<= .def_311 0.0 )))
(let ((.def_329 (not .def_328)))
(let ((.def_326 (<= b.speed_y__AT1 0.0 )))
(let ((.def_349 (or .def_326 .def_329)))
(let ((.def_312 (<= 0.0 .def_311)))
(let ((.def_348 (or .def_312 .def_315)))
(let ((.def_350 (and .def_348 .def_349)))
(let ((.def_351 (or .def_126 .def_350)))
(let ((.def_313 (not .def_312)))
(let ((.def_345 (or .def_313 .def_314)))
(let ((.def_327 (not .def_326)))
(let ((.def_344 (or .def_327 .def_328)))
(let ((.def_346 (and .def_344 .def_345)))
(let ((.def_347 (or .def_121 .def_346)))
(let ((.def_352 (and .def_347 .def_351)))
(let ((.def_341 (and .def_326 .def_328)))
(let ((.def_340 (and .def_312 .def_314)))
(let ((.def_342 (or .def_340 .def_341)))
(let ((.def_306 (+ .def_304 .def_305)))
(let ((.def_307 (+ b.y__AT1 .def_306)))
(let ((.def_320 (<= .def_307 0.0 )))
(let ((.def_334 (not .def_320)))
(let ((.def_318 (<= b.y__AT1 0.0 )))
(let ((.def_335 (or .def_318 .def_334)))
(let ((.def_290 (<= 0.0 b.y__AT1)))
(let ((.def_332 (not .def_290)))
(let ((.def_308 (<= 0.0 .def_307)))
(let ((.def_333 (or .def_308 .def_332)))
(let ((.def_336 (and .def_333 .def_335)))
(let ((.def_330 (or .def_327 .def_329)))
(let ((.def_331 (not .def_330)))
(let ((.def_337 (or .def_331 .def_336)))
(let ((.def_322 (not .def_308)))
(let ((.def_323 (or .def_290 .def_322)))
(let ((.def_319 (not .def_318)))
(let ((.def_321 (or .def_319 .def_320)))
(let ((.def_324 (and .def_321 .def_323)))
(let ((.def_316 (or .def_313 .def_315)))
(let ((.def_317 (not .def_316)))
(let ((.def_325 (or .def_317 .def_324)))
(let ((.def_338 (and .def_325 .def_337)))
(let ((.def_309 (and .def_290 .def_308)))
(let ((.def_339 (and .def_309 .def_338)))
(let ((.def_343 (and .def_339 .def_342)))
(let ((.def_353 (and .def_343 .def_352)))
(let ((.def_354 (and .def_60 .def_353)))
(let ((.def_355 (and .def_68 .def_354)))
(let ((.def_34 (not b.counter.0__AT0)))
(let ((.def_32 (not b.counter.1__AT0)))
(let ((.def_35 (and .def_32 .def_34)))
(let ((.def_298 (or .def_35 b.counter.3__AT0)))
(let ((.def_295 (or .def_35 b.counter.2__AT0)))
(let ((.def_37 (not b.counter.2__AT0)))
(let ((.def_294 (or .def_32 .def_37)))
(let ((.def_296 (and .def_294 .def_295)))
(let ((.def_40 (not b.counter.3__AT0)))
(let ((.def_297 (or .def_40 .def_296)))
(let ((.def_299 (and .def_297 .def_298)))
(let ((.def_291 (and .def_69 .def_290)))
(let ((.def_288 (or .def_285 .def_287)))
(let ((.def_278 (or .def_177 .def_189)))
(let ((.def_282 (or b.counter.3__AT1 .def_278)))
(let ((.def_279 (or b.counter.2__AT1 .def_278)))
(let ((.def_277 (or .def_184 .def_189)))
(let ((.def_280 (and .def_277 .def_279)))
(let ((.def_281 (or .def_199 .def_280)))
(let ((.def_283 (and .def_281 .def_282)))
(let ((.def_289 (and .def_283 .def_288)))
(let ((.def_292 (and .def_289 .def_291)))
(let ((.def_272 (<= 0.0 b.delta__AT0)))
(let ((.def_53 (not b.EVENT.0__AT0)))
(let ((.def_51 (not b.EVENT.1__AT0)))
(let ((.def_165 (and .def_51 .def_53)))
(let ((.def_166 (not .def_165)))
(let ((.def_273 (or .def_166 .def_272)))
(let ((.def_274 (or b.EVENT.1__AT0 .def_273)))
(let ((.def_221 (= b.counter.0__AT0 b.counter.0__AT1)))
(let ((.def_219 (= b.counter.1__AT0 b.counter.1__AT1)))
(let ((.def_217 (= b.counter.2__AT0 b.counter.2__AT1)))
(let ((.def_216 (= b.counter.3__AT0 b.counter.3__AT1)))
(let ((.def_218 (and .def_216 .def_217)))
(let ((.def_220 (and .def_218 .def_219)))
(let ((.def_222 (and .def_220 .def_221)))
(let ((.def_269 (or .def_166 .def_222)))
(let ((.def_270 (or b.EVENT.1__AT0 .def_269)))
(let ((.def_229 (= b.x__AT1 b.x__AT0)))
(let ((.def_226 (= b.y__AT0 b.y__AT1)))
(let ((.def_263 (and .def_226 .def_229)))
(let ((.def_147 (= b.speed_x__AT0 b.speed_x__AT1)))
(let ((.def_264 (and .def_147 .def_263)))
(let ((.def_215 (= b.speed_y__AT0 b.speed_y__AT1)))
(let ((.def_265 (and .def_215 .def_264)))
(let ((.def_260 (= b.delta__AT0 0.0 )))
(let ((.def_261 (and .def_165 .def_260)))
(let ((.def_262 (not .def_261)))
(let ((.def_266 (or .def_262 .def_265)))
(let ((.def_267 (or b.EVENT.1__AT0 .def_266)))
(let ((.def_240 (= b.time__AT0 b.time__AT1)))
(let ((.def_252 (and .def_229 .def_240)))
(let ((.def_253 (and .def_226 .def_252)))
(let ((.def_254 (and .def_147 .def_253)))
(let ((.def_255 (and .def_215 .def_254)))
(let ((.def_256 (and .def_222 .def_255)))
(let ((.def_257 (or .def_51 .def_256)))
(let ((.def_243 (* (- 1.0) b.time__AT1)))
(let ((.def_246 (+ b.delta__AT0 .def_243)))
(let ((.def_247 (+ b.time__AT0 .def_246)))
(let ((.def_248 (= .def_247 0.0 )))
(let ((.def_249 (or .def_166 .def_248)))
(let ((.def_250 (or b.EVENT.1__AT0 .def_249)))
(let ((.def_241 (or .def_165 .def_240)))
(let ((.def_242 (or b.EVENT.1__AT0 .def_241)))
(let ((.def_251 (and .def_242 .def_250)))
(let ((.def_258 (and .def_251 .def_257)))
(let ((.def_236 (= .def_166 b.event_is_timed__AT1)))
(let ((.def_234 (= b.event_is_timed__AT0 .def_165)))
(let ((.def_237 (and .def_234 .def_236)))
(let ((.def_223 (and .def_215 .def_222)))
(let ((.def_168 (= b.y__AT0 0.0 )))
(let ((.def_91 (<= 0.0 b.speed_y__AT0)))
(let ((.def_92 (not .def_91)))
(let ((.def_169 (and .def_92 .def_168)))
(let ((.def_224 (or .def_169 .def_223)))
(let ((.def_190 (or b.counter.0__AT0 .def_189)))
(let ((.def_188 (or .def_34 b.counter.0__AT1)))
(let ((.def_191 (and .def_188 .def_190)))
(let ((.def_192 (and .def_177 .def_191)))
(let ((.def_193 (or b.counter.1__AT0 .def_192)))
(let ((.def_187 (or .def_32 b.counter.1__AT1)))
(let ((.def_194 (and .def_187 .def_193)))
(let ((.def_207 (and .def_184 .def_194)))
(let ((.def_208 (or b.counter.2__AT0 .def_207)))
(let ((.def_202 (and .def_34 .def_177)))
(let ((.def_203 (or b.counter.1__AT0 .def_202)))
(let ((.def_204 (and .def_187 .def_203)))
(let ((.def_205 (and b.counter.2__AT1 .def_204)))
(let ((.def_206 (or .def_37 .def_205)))
(let ((.def_209 (and .def_206 .def_208)))
(let ((.def_210 (and b.counter.3__AT1 .def_209)))
(let ((.def_211 (or b.counter.3__AT0 .def_210)))
(let ((.def_195 (and b.counter.2__AT1 .def_194)))
(let ((.def_196 (or b.counter.2__AT0 .def_195)))
(let ((.def_181 (or b.counter.1__AT0 b.counter.1__AT1)))
(let ((.def_179 (and .def_177 b.counter.0__AT1)))
(let ((.def_180 (or .def_32 .def_179)))
(let ((.def_182 (and .def_180 .def_181)))
(let ((.def_185 (and .def_182 .def_184)))
(let ((.def_186 (or .def_37 .def_185)))
(let ((.def_197 (and .def_186 .def_196)))
(let ((.def_200 (and .def_197 .def_199)))
(let ((.def_201 (or .def_40 .def_200)))
(let ((.def_212 (and .def_201 .def_211)))
(let ((.def_171 (* (- 1.0) b.speed_y__AT0)))
(let ((.def_174 (* .def_171 .def_173)))
(let ((.def_175 (= b.speed_y__AT1 .def_174)))
(let ((.def_213 (and .def_175 .def_212)))
(let ((.def_170 (not .def_169)))
(let ((.def_214 (or .def_170 .def_213)))
(let ((.def_225 (and .def_214 .def_224)))
(let ((.def_227 (and .def_225 .def_226)))
(let ((.def_228 (and .def_147 .def_227)))
(let ((.def_230 (and .def_228 .def_229)))
(let ((.def_231 (or .def_165 .def_230)))
(let ((.def_232 (or b.EVENT.1__AT0 .def_231)))
(let ((.def_157 (* (- 1.0) b.y__AT1)))
(let ((.def_81 (* b.speed_y__AT0 b.delta__AT0)))
(let ((.def_160 (+ .def_81 .def_157)))
(let ((.def_76 (* b.delta__AT0 b.delta__AT0)))
(let ((.def_80 (* .def_76 .def_79)))
(let ((.def_161 (+ .def_80 .def_160)))
(let ((.def_162 (+ b.y__AT0 .def_161)))
(let ((.def_163 (= .def_162 0.0 )))
(let ((.def_149 (* b.delta__AT0 .def_78)))
(let ((.def_152 (+ .def_149 .def_151)))
(let ((.def_153 (+ b.speed_y__AT0 .def_152)))
(let ((.def_154 (= .def_153 0.0 )))
(let ((.def_139 (* (- 1.0) b.x__AT1)))
(let ((.def_143 (+ .def_139 b.x__AT0)))
(let ((.def_137 (* b.delta__AT0 b.speed_x__AT0)))
(let ((.def_144 (+ .def_137 .def_143)))
(let ((.def_145 (= .def_144 0.0 )))
(let ((.def_148 (and .def_145 .def_147)))
(let ((.def_155 (and .def_148 .def_154)))
(let ((.def_164 (and .def_155 .def_163)))
(let ((.def_167 (or .def_164 .def_166)))
(let ((.def_233 (and .def_167 .def_232)))
(let ((.def_238 (and .def_233 .def_237)))
(let ((.def_259 (and .def_238 .def_258)))
(let ((.def_268 (and .def_259 .def_267)))
(let ((.def_271 (and .def_268 .def_270)))
(let ((.def_275 (and .def_271 .def_274)))
(let ((.def_276 (and .def_51 .def_275)))
(let ((.def_293 (and .def_276 .def_292)))
(let ((.def_300 (and .def_293 .def_299)))
(let ((.def_87 (* b.delta__AT0 .def_86)))
(let ((.def_88 (+ b.speed_y__AT0 .def_87)))
(let ((.def_105 (<= .def_88 0.0 )))
(let ((.def_106 (not .def_105)))
(let ((.def_103 (<= b.speed_y__AT0 0.0 )))
(let ((.def_128 (or .def_103 .def_106)))
(let ((.def_89 (<= 0.0 .def_88)))
(let ((.def_127 (or .def_89 .def_92)))
(let ((.def_129 (and .def_127 .def_128)))
(let ((.def_130 (or .def_126 .def_129)))
(let ((.def_90 (not .def_89)))
(let ((.def_123 (or .def_90 .def_91)))
(let ((.def_104 (not .def_103)))
(let ((.def_122 (or .def_104 .def_105)))
(let ((.def_124 (and .def_122 .def_123)))
(let ((.def_125 (or .def_121 .def_124)))
(let ((.def_131 (and .def_125 .def_130)))
(let ((.def_118 (and .def_103 .def_105)))
(let ((.def_117 (and .def_89 .def_91)))
(let ((.def_119 (or .def_117 .def_118)))
(let ((.def_82 (+ .def_80 .def_81)))
(let ((.def_83 (+ b.y__AT0 .def_82)))
(let ((.def_97 (<= .def_83 0.0 )))
(let ((.def_111 (not .def_97)))
(let ((.def_95 (<= b.y__AT0 0.0 )))
(let ((.def_112 (or .def_95 .def_111)))
(let ((.def_70 (<= 0.0 b.y__AT0)))
(let ((.def_109 (not .def_70)))
(let ((.def_84 (<= 0.0 .def_83)))
(let ((.def_110 (or .def_84 .def_109)))
(let ((.def_113 (and .def_110 .def_112)))
(let ((.def_107 (or .def_104 .def_106)))
(let ((.def_108 (not .def_107)))
(let ((.def_114 (or .def_108 .def_113)))
(let ((.def_99 (not .def_84)))
(let ((.def_100 (or .def_70 .def_99)))
(let ((.def_96 (not .def_95)))
(let ((.def_98 (or .def_96 .def_97)))
(let ((.def_101 (and .def_98 .def_100)))
(let ((.def_93 (or .def_90 .def_92)))
(let ((.def_94 (not .def_93)))
(let ((.def_102 (or .def_94 .def_101)))
(let ((.def_115 (and .def_102 .def_114)))
(let ((.def_85 (and .def_70 .def_84)))
(let ((.def_116 (and .def_85 .def_115)))
(let ((.def_120 (and .def_116 .def_119)))
(let ((.def_132 (and .def_120 .def_131)))
(let ((.def_133 (and .def_60 .def_132)))
(let ((.def_134 (and .def_68 .def_133)))
(let ((.def_71 (and .def_69 .def_70)))
(let ((.def_54 (or .def_51 .def_53)))
(let ((.def_44 (or .def_32 .def_34)))
(let ((.def_48 (or b.counter.3__AT0 .def_44)))
(let ((.def_45 (or b.counter.2__AT0 .def_44)))
(let ((.def_43 (or .def_34 .def_37)))
(let ((.def_46 (and .def_43 .def_45)))
(let ((.def_47 (or .def_40 .def_46)))
(let ((.def_49 (and .def_47 .def_48)))
(let ((.def_55 (and .def_49 .def_54)))
(let ((.def_72 (and .def_55 .def_71)))
(let ((.def_38 (and .def_35 .def_37)))
(let ((.def_41 (and .def_38 .def_40)))
(let ((.def_29 (= b.speed_y__AT0 0.0 )))
(let ((.def_26 (= b.y__AT0 10.0 )))
(let ((.def_21 (= b.time__AT0 0.0 )))
(let ((.def_23 (and .def_21 b.event_is_timed__AT0)))
(let ((.def_27 (and .def_23 .def_26)))
(let ((.def_30 (and .def_27 .def_29)))
(let ((.def_42 (and .def_30 .def_41)))
(let ((.def_73 (and .def_42 .def_72)))
(let ((.def_10 (and .def_6 .def_9)))
(let ((.def_16 (or .def_10 b.counter.3__AT2)))
(let ((.def_11 (or b.counter.2__AT2 .def_10)))
(let ((.def_7 (or .def_4 .def_6)))
(let ((.def_12 (and .def_7 .def_11)))
(let ((.def_15 (or .def_12 .def_14)))
(let ((.def_17 (and .def_15 .def_16)))
(let ((.def_18 (not .def_17)))
(let ((.def_74 (and .def_18 .def_73)))
(let ((.def_135 (and .def_74 .def_134)))
(let ((.def_301 (and .def_135 .def_300)))
(let ((.def_356 (and .def_301 .def_355)))
(let ((.def_509 (and .def_356 .def_508)))
(let ((.def_564 (and .def_509 .def_563)))
.def_564)))))))))))))))))))))))))))))))))))))))))))))))))))))))))))))))))))))))))))))))))))))))))))))))))))))))))))))))))))))))))))))))))))))))))))))))))))))))))))))))))))))))))))))))))))))))))))))))))))))))))))))))))))))))))))))))))))))))))))))))))))))))))))))))))))))))))))))))))))))))))))))))))))))))))))))))))))))))))))))))))))))))))))))))))))))))))))))))))))))))))))))))))))))))))))))))))))))))))))))))))))))))))))))))))))))))))))))))))))))))))))))))))))))))))))))))))))))))))))))))))))))))))))))))))))))))
(check-sat)
(exit)
